n_res = 4;
rc = [ 30, 26, 28, 22 ];
n_tasks = 120;
d = [ 9, 10, 3, 10, 10, 4, 6, 2, 5, 4, 1, 7, 8, 10, 10, 9, 9, 1, 5, 6, 1, 1, 4, 7, 1, 3, 3, 3, 9, 4, 7, 8, 10, 3, 5, 1, 5, 7, 9, 6, 3, 2, 2, 10, 3, 3, 1, 5, 2, 3, 2, 2, 2, 1, 1, 7, 5, 3, 8, 6, 1, 9, 8, 1, 5, 2, 9, 10, 6, 9, 5, 8, 2, 10, 4, 6, 5, 2, 4, 7, 7, 10, 6, 1, 7, 8, 2, 4, 9, 6, 9, 10, 4, 8, 9, 7, 7, 8, 6, 4, 7, 6, 8, 5, 8, 2, 10, 5, 3, 5, 9, 7, 1, 6, 2, 4, 2, 2, 8, 5 ];
rr = [| 10, 7, 0, 7, 0, 0, 6, 3, 2, 0, 3, 0, 0, 4, 4, 3, 2, 5, 10, 8, 0, 9, 0, 2, 0, 0, 7, 2, 0, 0, 0, 0, 6, 3, 7, 0, 1, 0, 6, 0, 1, 0, 2, 0, 3, 10, 6, 10, 2, 0, 10, 0, 5, 8, 6, 0, 0, 3, 10, 4, 8, 0, 2, 0, 0, 0, 7, 5, 10, 0, 2, 0, 4, 0, 9, 0, 4, 10, 8, 9, 0, 1, 0, 0, 0, 0, 0, 8, 8, 4, 5, 0, 0, 0, 7, 3, 5, 10, 0, 0, 1, 3, 0, 6, 9, 0, 0, 5, 0, 0, 4, 0, 0, 4, 10, 0, 0, 1, 0, 5
      | 0, 5, 0, 6, 2, 8, 0, 2, 8, 1, 0, 7, 0, 8, 1, 5, 0, 0, 0, 0, 0, 0, 1, 0, 2, 3, 0, 9, 10, 0, 0, 0, 0, 5, 0, 3, 0, 7, 0, 8, 0, 8, 0, 9, 10, 0, 9, 3, 0, 0, 0, 2, 9, 0, 8, 0, 0, 0, 8, 10, 0, 0, 5, 8, 0, 0, 0, 0, 0, 6, 0, 0, 1, 8, 0, 0, 0, 6, 5, 0, 2, 0, 0, 0, 0, 10, 0, 0, 0, 0, 0, 3, 0, 8, 9, 0, 3, 0, 1, 7, 0, 3, 9, 0, 1, 5, 8, 3, 0, 7, 6, 0, 4, 4, 1, 0, 0, 5, 2, 10
      | 5, 0, 1, 1, 0, 0, 0, 4, 1, 8, 4, 7, 9, 0, 10, 0, 0, 2, 6, 0, 3, 0, 3, 0, 5, 7, 8, 0, 0, 0, 0, 8, 7, 0, 0, 8, 0, 0, 6, 0, 0, 0, 0, 4, 8, 1, 0, 1, 10, 4, 7, 0, 0, 5, 4, 0, 4, 0, 10, 1, 0, 10, 6, 0, 0, 8, 8, 4, 0, 0, 6, 0, 0, 0, 3, 0, 8, 0, 2, 10, 4, 0, 7, 8, 0, 0, 2, 0, 2, 5, 0, 4, 0, 0, 10, 5, 0, 1, 0, 0, 0, 2, 9, 8, 0, 7, 0, 0, 0, 3, 7, 6, 0, 4, 0, 0, 2, 0, 0, 0
      | 4, 0, 3, 7, 0, 0, 2, 0, 9, 7, 7, 0, 4, 0, 0, 0, 4, 3, 0, 7, 3, 0, 0, 3, 0, 0, 0, 0, 0, 8, 2, 0, 0, 2, 7, 0, 0, 0, 10, 0, 0, 0, 0, 0, 0, 1, 0, 0, 0, 8, 0, 8, 0, 10, 4, 1, 1, 4, 1, 0, 0, 6, 0, 2, 1, 0, 0, 8, 0, 0, 0, 3, 0, 0, 1, 4, 5, 2, 0, 0, 0, 6, 0, 0, 8, 0, 10, 0, 0, 0, 0, 7, 3, 4, 0, 6, 0, 2, 7, 0, 0, 10, 0, 0, 0, 0, 0, 10, 4, 0, 0, 9, 0, 4, 0, 4, 0, 4, 0, 0 |];
suc = [ { 4, 10, 13 },
       { 15, 16, 19 },
       { 5, 6, 7 },
       { 8, 25, 78 },
       { 22, 41, 48 },
       { 10, 42, 55 },
       { 9, 11, 51 },
       { 12, 20, 31 },
       { 14, 28, 55 },
       { 18, 32, 91 },
       { 30, 76 },
       { 17, 26, 32 },
       { 22, 31, 53 },
       { 30, 34, 44 },
       { 50, 54, 99 },
       { 24, 29 },
       { 27, 35, 69 },
       { 46, 63 },
       { 23, 33, 36 },
       { 21, 23, 77 },
       { 57, 66 },
       { 29, 46, 52 },
       { 26, 37, 120 },
       { 45, 51, 92 },
       { 35, 73, 108 },
       { 27, 54, 79 },
       { 43, 64, 89 },
       { 74, 83, 91 },
       { 38, 56, 76 },
       { 33, 49, 75 },
       { 64, 100, 104 },
       { 53, 81 },
       { 47, 56, 73 },
       { 39, 40, 66 },
       { 84 },
       { 42, 52 },
       { 43, 54, 69 },
       { 57, 71 },
       { 72 },
       { 68, 93, 109 },
       { 53 },
       { 86, 101 },
       { 87 },
       { 45, 68, 80 },
       { 63, 75, 84 },
       { 61, 80, 101 },
       { 58, 67 },
       { 59 },
       { 57 },
       { 82, 112 },
       { 69, 70, 116 },
       { 60, 116, 118 },
       { 59, 61, 62 },
       { 83 },
       { 62, 72, 74 },
       { 65, 90, 103 },
       { 58, 62, 65 },
       { 64, 68 },
       { 63, 66 },
       { 71, 89 },
       { 77, 88, 103 },
       { 80, 105, 112 },
       { 67, 73 },
       { 85 },
       { 72, 98 },
       { 82, 94, 106 },
       { 74, 82 },
       { 70, 85, 115 },
       { 79, 87, 100 },
       { 81, 117 },
       { 75, 81, 87 },
       { 85, 107 },
       { 86, 90, 94 },
       { 95, 101 },
       { 117 },
       { 77, 79, 105 },
       { 96, 97 },
       { 105, 106 },
       { 88, 89 },
       { 90, 95, 99 },
       { 83, 102 },
       { 86 },
       { 100 },
       { 96, 104 },
       { 88, 118 },
       { 103 },
       { 94, 96 },
       { 111 },
       { 109 },
       { 93 },
       { 97, 102, 104 },
       { 93, 99, 108 },
       { 98 },
       { 102 },
       { 97, 98 },
       { 111 },
       { 106, 110 },
       { 114 },
       { 110 },
       { 111 },
       { 108 },
       { 119 },
       { 118 },
       { 107, 110 },
       { 109, 113, 115 },
       { 107 },
       { 117 },
       { 112, 113 },
       { 119 },
       { 114 },
       { 113 },
       { 114 },
       { 119 },
       { 115 },
       { 116 },
       { 120 },
       { 120 },
       {  },
       {  },
       {  } ];
